Set parameter TokenServer to value "opt-license.discovery.wisc.edu"
Set parameter TimeLimit to value 600
Gurobi Optimizer version 9.5.1 build v9.5.1rc2 (linux64)
Thread count: 40 physical cores, 80 logical processors, using up to 32 threads
Optimize a model with 3025 rows, 2916 columns and 11610 nonzeros
Model fingerprint: 0x9a64875d
Variable types: 0 continuous, 2916 integer (2916 binary)
Coefficient statistics:
  Matrix range     [1e+00, 2e+03]
  Objective range  [1e+00, 9e+00]
  Bounds range     [1e+00, 1e+00]
  RHS range        [1e+00, 4e+00]
Found heuristic solution: objective 236.2237525
Presolve removed 54 rows and 0 columns
Presolve time: 0.05s
Presolved: 2971 rows, 2916 columns, 11610 nonzeros
Variable types: 0 continuous, 2916 integer (2916 binary)
Found heuristic solution: objective 215.7136869

Root relaxation: objective 7.746023e+01, 935 iterations, 0.04 seconds (0.02 work units)

    Nodes    |    Current Node    |     Objective Bounds      |     Work
 Expl Unexpl |  Obj  Depth IntInf | Incumbent    BestBd   Gap | It/Node Time

     0     0   77.46023    0   32  215.71369   77.46023  64.1%     -    0s
H    0     0                      84.2082968   77.46023  8.01%     -    0s
H    0     0                      78.3864424   77.46023  1.18%     -    0s
     0     0   77.46023    0   34   78.38644   77.46023  1.18%     -    0s
H    0     0                      78.0460192   77.46023  0.75%     -    0s
     0     0   77.46023    0    4   78.04602   77.46023  0.75%     -    0s
     0     0   77.46023    0   18   78.04602   77.46023  0.75%     -    0s

Cutting planes:
  Gomory: 1

Explored 1 nodes (1270 simplex iterations) in 0.31 seconds (0.13 work units)
Thread count was 32 (of 80 available processors)

Solution count 5: 78.046 78.3864 84.2083 ... 236.224

Optimal solution found (tolerance 1.00e-04)
Best objective 7.804601916559e+01, best bound 7.804601916559e+01, gap 0.0000%
